n_res = 4;
rc = [ 14, 28, 20, 16 ];
n_tasks = 30;
d = [ 10, 3, 7, 5, 5, 10, 5, 9, 4, 7, 10, 7, 8, 10, 5, 7, 3, 9, 6, 5, 8, 9, 2, 6, 8, 2, 4, 4, 8, 7 ];
rr = [| 0, 0, 0, 0, 0, 2, 3, 0, 0, 9, 2, 0, 0, 0, 0, 0, 7, 0, 0, 0, 0, 0, 0, 0, 0, 1, 0, 0, 0, 1
      | 8, 0, 0, 0, 0, 0, 0, 0, 0, 0, 0, 10, 7, 5, 9, 0, 0, 3, 0, 0, 10, 3, 6, 0, 0, 0, 0, 2, 4, 0
      | 0, 0, 0, 0, 0, 0, 0, 6, 0, 0, 0, 0, 0, 0, 0, 6, 0, 0, 6, 0, 0, 0, 0, 6, 8, 0, 1, 0, 0, 0
      | 0, 3, 5, 7, 7, 0, 0, 0, 2, 0, 0, 0, 0, 0, 0, 0, 0, 0, 0, 3, 0, 0, 0, 0, 0, 0, 0, 0, 0, 0 |];
suc = [ { 8, 13, 26 },
       { 5, 10, 29 },
       { 4, 6, 9 },
       { 18, 23 },
       { 7, 14, 18 },
       { 19 },
       { 11, 12, 17 },
       { 12, 14, 15 },
       { 16, 17, 24 },
       { 23, 25 },
       { 20, 25 },
       { 20, 24 },
       { 20, 22, 24 },
       { 22, 28 },
       { 16, 17, 18 },
       { 27 },
       { 21, 25, 27 },
       { 28 },
       { 22 },
       { 21 },
       { 23 },
       { 27 },
       { 30 },
       { 30 },
       { 28 },
       { 29 },
       { 30 },
       {  },
       {  },
       {  } ];
t_max = 193;
deadline = [| 48, 1, 4
 | 69, 0, 1
 | 44, 0, 4
 | 3, 1, 2
 | 12, 1, 4
 | 55, 2, 1
 | 25, 3, 0
 | 67, 4, 3
 | 66, 4, 1
 | 90, 2, 2
 | 75, 1, 2
 | 74, 4, 0
 | 52, 4, 3
 | 72, 1, 1
 | 25, 3, 4
 | 13, 2, 3
 | 53, 0, 2
 | 23, 4, 0
 | 38, 3, 0
 | 34, 1, 0
 | 86, 1, 1
 | 12, 1, 2
 | 10, 0, 4
 | 54, 1, 0
 | 62, 0, 0
 | 49, 1, 1
 | 63, 3, 4
 | 20, 1, 1
 | 58, 2, 3
 | 86, 4, 4 |];
